
******************************************************************************
This program contains Ipopt, a library for large-scale nonlinear optimization.
 Ipopt is released as open source code under the Eclipse Public License (EPL).
         For more information visit http://projects.coin-or.org/Ipopt
******************************************************************************

This is Ipopt version 3.12.6, running with linear solver ma57.

Number of nonzeros in equality constraint Jacobian...:        0
Number of nonzeros in inequality constraint Jacobian.:     6000
Number of nonzeros in Lagrangian Hessian.............:     2002

Total number of variables............................:     2002
                     variables with only lower bounds:        0
                variables with lower and upper bounds:        0
                     variables with only upper bounds:        0
Total number of equality constraints.................:        0
Total number of inequality constraints...............:     2000
        inequality constraints with only lower bounds:     2000
   inequality constraints with lower and upper bounds:        0
        inequality constraints with only upper bounds:        0

iter    objective    inf_pr   inf_du lg(mu)  ||d||  lg(rg) alpha_du alpha_pr  ls
   0  3.3878280e+02 0.00e+00 1.43e+00  -1.0 0.00e+00    -  0.00e+00 0.00e+00   0
   1  5.0571643e+01 3.58e-03 3.87e+00  -1.0 1.88e+00    -  1.00e+00 6.32e-01f  1
   2  1.4339099e+01 1.53e-03 1.46e+01  -1.0 6.81e-01    -  1.00e+00 5.72e-01h  1
   3  8.0544021e+00 6.42e-04 3.61e+01  -1.0 4.02e-01    -  1.00e+00 5.78e-01h  1
   4  7.8411815e+00 2.72e-04 8.69e+01  -1.0 2.90e-01    -  1.00e+00 5.75e-01h  1
   5  9.0980608e+00 1.11e-04 1.99e+02  -1.0 2.45e-01    -  1.00e+00 5.90e-01h  1
   6  1.1350334e+01 4.67e-05 4.89e+02  -1.0 2.26e-01    -  1.00e+00 5.81e-01h  1
   7  1.4961458e+01 1.91e-05 1.15e+03  -1.0 2.19e-01    -  1.00e+00 5.90e-01h  1
   8  2.0485984e+01 8.00e-06 2.84e+03  -1.0 2.16e-01    -  1.00e+00 5.82e-01h  1
   9  2.9033844e+01 3.31e-06 6.74e+03  -1.0 2.15e-01    -  1.00e+00 5.86e-01h  1
iter    objective    inf_pr   inf_du lg(mu)  ||d||  lg(rg) alpha_du alpha_pr  ls
  10  4.4041545e+01 1.39e-06 1.80e+04  -1.0 2.28e-01    -  1.00e+00 5.81e-01h  1
  11  9.9011141e+01 0.00e+00 1.00e-06  -1.0 2.12e-01    -  1.00e+00 1.00e+00h  1
  12  2.8376343e+01 0.00e+00 2.18e-11  -5.7 7.33e-01    -  1.00e+00 1.00e+00f  1
  13  1.0783308e+01 0.00e+00 1.86e-11  -5.7 3.66e-01    -  1.00e+00 1.00e+00f  1
  14  6.4178050e+00 0.00e+00 1.86e-11  -5.7 1.83e-01    -  1.00e+00 1.00e+00f  1
  15  5.3425860e+00 0.00e+00 1.86e-11  -5.7 9.09e-02    -  1.00e+00 1.00e+00f  1
  16  5.0809189e+00 0.00e+00 1.17e+03  -5.7 4.48e-02    -  5.27e-01 1.00e+00f  1
  17  5.0387640e+00 0.00e+00 1.95e+02  -5.7 2.75e-02    -  9.57e-01 7.06e-01f  1
  18  5.0062996e+00 0.00e+00 1.85e-11  -5.7 1.59e-02    -  1.00e+00 1.00e+00f  1
  19  4.9996535e+00 0.00e+00 1.42e+02  -8.6 6.86e-03    -  6.62e-01 9.96e-01f  1
iter    objective    inf_pr   inf_du lg(mu)  ||d||  lg(rg) alpha_du alpha_pr  ls
  20  4.9984804e+00 0.00e+00 2.30e+01  -8.6 4.08e-03    -  8.91e-01 9.37e-01f  1
  21  4.9981497e+00 0.00e+00 2.06e+01  -8.6 1.86e-03    -  8.13e-01 1.00e+00f  1
  22  4.9980751e+00 0.00e+00 4.37e+00  -8.6 7.62e-04    -  8.74e-01 1.00e+00f  1
  23  4.9980521e+00 0.00e+00 9.41e-01  -8.6 3.75e-04    -  9.66e-01 7.92e-01f  1
  24  4.9980460e+00 5.02e-17 1.31e+00  -8.6 2.35e-04    -  1.00e+00 4.62e-01f  1
  25  4.9980383e+00 0.00e+00 2.58e-14  -8.6 1.80e-04    -  1.00e+00 1.00e+00f  1
  26  4.9980367e+00 0.00e+00 1.10e-01  -9.0 4.58e-05    -  7.42e-01 1.00e+00f  1
  27  4.9980364e+00 0.00e+00 7.26e-03  -9.0 1.46e-05    -  1.00e+00 8.72e-01h  1
  28  4.9980364e+00 0.00e+00 9.77e-15  -9.0 2.73e-06    -  1.00e+00 1.00e+00f  1

Number of Iterations....: 28

                                   (scaled)                 (unscaled)
Objective...............:   4.9980363502939973e+00    4.9980363502939973e+00
Dual infeasibility......:   9.7699626167013776e-15    9.7699626167013776e-15
Constraint violation....:   0.0000000000000000e+00    0.0000000000000000e+00
Complementarity.........:   4.6083808450743624e-09    4.6083808450743624e-09
Overall NLP error.......:   4.6083808450743624e-09    4.6083808450743624e-09


Number of objective function evaluations             = 29
Number of objective gradient evaluations             = 29
Number of equality constraint evaluations            = 0
Number of inequality constraint evaluations          = 29
Number of equality constraint Jacobian evaluations   = 0
Number of inequality constraint Jacobian evaluations = 29
Number of Lagrangian Hessian evaluations             = 28
Total CPU secs in IPOPT (w/o function evaluations)   =      0.080
Total CPU secs in NLP function evaluations           =      0.027

EXIT: Optimal Solution Found.

************************ CUTEst statistics ************************


 Package used            :  IPOPT
 Problem                 :  LISWET2   
 # variables             =            2002
 # constraints           =            2000
 # objective functions   =        0.5900000E+02
 # objective gradients   =        0.3000000E+02
 # objective Hessians    =        0.2900000E+02
 # Hessian-vector prdct  =        0.0000000E+00
 # constraints functions =        0.6000000E+02
 # constraints gradients =        0.3100000E+02
 # constraints Hessians  =        0.2900000E+02
 Exit code               =               0
 Final f                 =   0.4998036E+01
 Set up time             =            0.04 seconds
 Solve time              =            0.30 seconds


******************************************************************

System Time =       0.0790000036 s.
